db/inputs/278622011236891351626436243745774820.smt2
(set-logic QF_FP)
(declare-const x0 (_ FloatingPoint 11 53))
(declare-const x1 (_ FloatingPoint 11 53))
(declare-const x2 (_ FloatingPoint 11 53))
(declare-const x3 (_ FloatingPoint 11 53))
(declare-const x4 (_ FloatingPoint 11 53))
(declare-const x5 (_ FloatingPoint 11 53))
(declare-const x6 (_ FloatingPoint 11 53))
(declare-const x7 (_ FloatingPoint 11 53))
(declare-const x8 (_ FloatingPoint 11 53))
(declare-const x9 (_ FloatingPoint 11 53))
(declare-const x10 (_ FloatingPoint 11 53))
(declare-const x11 (_ FloatingPoint 11 53))
(assert (fp.lt (fp.div RNE (fp.mul RNE x7 x6) (fp.mul RNE x10 x1)) (fp.add RNE (fp.neg x9) (fp.mul RNE x3 x0))))
(assert (fp.geq (fp.mul RNE (fp.div RNE x11 x6) (fp.sub RNE x1 x11)) (fp.neg (fp.div RNE x8 x4))))
(check-sat)
