db/data/278622011236891351626436243745774820.z3.out
-------------------
2500.089933260
